Route #1: 57 39 44 36
Route #2: 66 51 67 61 30 45 33
Route #3: 12 24 18 27 25 15 23
Route #4: 54 60 46 55 64 63 58 56 53
Route #5: 50 47 38 43 35 48 49 37 32 34 41 40 42 29 31 68 59 69 65
Route #6: 26 62
Route #7: 74 75 19 21 13
Route #8: 22 14 1 7 10 9 11 2 3 6 5 17
Route #9: 16 4 8 28
Route #10: 20 71 73 72 70 52
Cost 1644.874292751872